\ This file has been generated by DOcplex
\ ENCODING=ISO-8859-1
\Problem name: transportation

Minimize
 obj: 2 x_1_3 + 4 x_1_5 + 5 x_2_4 + 3 x_2_5
Subject To
 c1: x_1_3 + x_1_5 <= 15
 c2: x_2_4 + x_2_5 <= 20
 c3: x_1_3 >= 7
 c4: x_2_4 >= 10
 c5: x_1_5 + x_2_5 >= 15

Bounds
End
